0 0 0 0 0
1 166 155 14 47
2 5 162 14 50
3 79 114 17 56
4 113 3 17 42
5 29 187 16 8
6 6 9 15 21
7 51 101 8 18
8 172 65 10 57
9 53 72 10 35
10 143 68 10 58
11 1 158 13 53
12 107 69 18 5
13 173 120 15 45
14 127 165 10 33
15 129 94 17 47
16 114 86 14 39
17 88 154 9 47
18 32 28 16 59
19 77 52 9 22
20 107 155 11 41
21 158 121 10 52
22 85 120 14 37
23 23 34 12 25
24 120 49 15 3
25 133 162 11 56
